data/solutions/recovery/degenerate/moderate/binding/degenerate_moderate_instance36/22.sol
Elapsed time: 0.04
Upper bound: 1666678107.0
Planning weighted value: 47105754908.0
C[0]=1666678107.0
C[1]=1640295312.0
C[2]=1465898201.0
C[3]=867131394.0
C[4]=0.0
y[0]=1
y[1]=0
y[2]=0
y[3]=0
y[4]=3
y[5]=2
y[6]=2
y[7]=3
y[8]=0
y[9]=0
y[10]=1
y[11]=0
y[12]=2
y[13]=0
y[14]=2
y[15]=3
y[16]=3
y[17]=1
y[18]=1
y[19]=2
y[20]=3
y[21]=2
y[22]=0
y[23]=1
y[24]=0
y[25]=1
y[26]=1
y[27]=0
y[28]=0
y[29]=3
y[30]=0
y[31]=1
y[32]=2
y[33]=3
y[34]=0
y[35]=2
y[36]=0
y[37]=1
y[38]=0
y[39]=1
y[40]=2
y[41]=1
y[42]=2
y[43]=1
y[44]=2
y[45]=1
